0 4867
4 4815
5 4800
8 4781
21 4766
27 4747
29 4701
30 4697
31 4682
36 4679
37 4658
42 4650
58 4616
60 4605
65 4551
66 4542
76 4529
83 4515
128 4503
149 4502
153 4501
161 4483
178 4453
190 4439
210 4431
212 4395
252 4381
262 4359
273 4353
309 4340
320 4331
325 4321
336 4307
350 4303
353 4301
363 4300
392 4271
400 4267
404 4262
418 4242
462 4241
537 4228
558 4215
563 4210
568 4205
576 4202
588 4192
611 4181
655 4179
656 4172
673 4171
700 4166
706 4151
720 4142
722 4133
724 4130
851 4126
1086 4125
1120 4124
1197 4122
1241 4120
1342 4104
1472 4094
1479 4092
1693 4063
1694 4062
2029 4061
2541 4060
2775 4056
2790 4055
2809 4051
6311 4046
6486 4045
6541 4030
6790 4026
6960 4020
7237 4019
8230 4018
8242 4017
8603 4013
24886 4011
25474 4009
26688 4008
27917 4005
28231 4000
32301 3999
